benchmarks/bfuzz0/29962308765272601226353306351359331994.smt2
(set-logic QF_FP)
(declare-const x0 (_ FloatingPoint 8 24))
(declare-const x1 (_ FloatingPoint 8 24))
(declare-const x2 (_ FloatingPoint 8 24))
(declare-const x3 (_ FloatingPoint 8 24))
(declare-const x4 (_ FloatingPoint 8 24))
(declare-const x5 (_ FloatingPoint 8 24))
(declare-const x6 (_ FloatingPoint 8 24))
(declare-const x7 (_ FloatingPoint 8 24))
(declare-const x8 (_ FloatingPoint 8 24))
(declare-const x9 (_ FloatingPoint 8 24))
(declare-const x10 (_ FloatingPoint 8 24))
(declare-const x11 (_ FloatingPoint 8 24))
(declare-const x12 (_ FloatingPoint 8 24))
(declare-const x13 (_ FloatingPoint 8 24))
(declare-const x14 (_ FloatingPoint 8 24))
(declare-const x15 (_ FloatingPoint 8 24))
(declare-const x16 (_ FloatingPoint 8 24))
(declare-const x17 (_ FloatingPoint 8 24))
(declare-const x18 (_ FloatingPoint 8 24))
(declare-const x19 (_ FloatingPoint 8 24))
(declare-const x20 (_ FloatingPoint 8 24))
(assert (fp.gt (fp.add RNE x13 x19) (fp.div RNE x13 x0)))
(assert (fp.leq (fp.div RNE x11 x5) (fp.add RNE x9 x10)))
(assert (fp.gt (fp.mul RNE x17 x9) (fp.sub RNE x3 x8)))
(assert (fp.gt (fp.neg x17) (fp.sub RNE x19 x19)))
(assert (fp.gt (fp.neg x13) (fp.mul RNE x0 x17)))
(assert (fp.leq (fp.div RNE x0 x11) (fp.sub RNE x4 x3)))
(assert (fp.lt (fp.div RNE x7 x4) (fp.div RNE x12 x4)))
(assert (fp.geq (fp.add RNE x9 x8) (fp.neg x3)))
(assert (fp.leq (fp.div RNE x17 x14) (fp.div RNE x0 x17)))
(assert (fp.gt (fp.add RNE x19 x13) (fp.neg x13)))
(assert (fp.lt (fp.sub RNE x18 x15) (fp.div RNE x2 x2)))
(assert (fp.gt (fp.div RNE x20 x1) (fp.div RNE x0 x6)))
(assert (fp.geq (fp.mul RNE x5 x10) (fp.sub RNE x11 x18)))
(assert (fp.geq (fp.div RNE x14 x5) (fp.add RNE x5 x3)))
(assert (fp.gt (fp.mul RNE x0 x11) (fp.div RNE x16 x5)))
(assert (fp.gt (fp.div RNE x6 x11) (fp.add RNE x5 x0)))
(assert (fp.geq (fp.mul RNE x4 x2) (fp.sub RNE x0 x2)))
(check-sat)
