db/data/29962308765272601226353306351359331994.z3.out
sat
-------------------
947.246174068
